z3_origin/RightTriangle-Bottema4_2b.txt
sat
(:max-memory                   18.52
 :memory                       18.43
 :nlsat-arith-var              4
 :nlsat-atoms                  9
 :nlsat-bool-var               1
 :nlsat-clauses                7
 :nlsat-conflicts              2
 :nlsat-decisions              2
 :nlsat-irrational-assignments 2
 :nlsat-propagations           11
 :nlsat-stages                 6
 :num-allocs                   57946
 :rlimit-count                 1761
 :solve-eqs-elim-vars          1
 :solve-eqs-steps              1
 :time                         0.00
 :total-time                   0.01)
